\* Branch_Utilization_Probelm_Problem *\
Maximize
Utilization_of_Branch_1: 1000 O_x3
Subject To
B1: - 20 I_x1 - 300 I_x2 + 1000 O_x3 <= 0
B2: - 30 I_x1 - 200 I_x2 + 1000 O_x3 <= 0
B3: - 40 I_x1 - 100 I_x2 + 1000 O_x3 <= 0
B4: - 20 I_x1 - 200 I_x2 + 1000 O_x3 <= 0
B5: - 10 I_x1 - 400 I_x2 + 1000 O_x3 <= 0
Norm: 10 I_x1 + 400 I_x2 = 1
End
